Route #1: 83 109 51 120 69 31 125
Route #2: 47 127 28 118 38
Route #3: 24 97 8 37 12 16 42 99 14 74
Route #4: 100 49 92 116 95 96 73 114 32
Route #5: 102 112 72 26 36 107
Route #6: 70 117 115 122 106 5 123
Route #7: 71 65 105 76 79 10 104 108
Route #8: 126 11 85 61 41 55 40 58 101 17 110
Route #9: 121 94 111 4 98 68 80 53
Route #10: 87 128 81 29 45 6 54
Route #11: 78 119 63 9 124 82
Route #12: 86 88 113 27 52 20 50
Route #13: 7 22 46 33 21 34 2 48 19
Route #14: 3
Route #15: 93 39 25 84 43 30 67
Route #16: 62 56 13 57 35 77 60
Route #17: 15 66 89 103 75 91
Route #18: 90 44 1 23 59 18 64
